(set-option :produce-models true)
(set-logic QF_LRA)
(set-info :notes | Strip-packing problem.|)
(declare-fun x0 () Real)
(declare-fun y0 () Real)
(declare-fun x1 () Real)
(declare-fun y1 () Real)
(declare-fun x2 () Real)
(declare-fun y2 () Real)
(declare-fun x3 () Real)
(declare-fun y3 () Real)
(declare-fun x4 () Real)
(declare-fun y4 () Real)
(declare-fun x5 () Real)
(declare-fun y5 () Real)
(declare-fun x6 () Real)
(declare-fun y6 () Real)
(declare-fun x7 () Real)
(declare-fun y7 () Real)
(declare-fun x8 () Real)
(declare-fun y8 () Real)
(declare-fun x9 () Real)
(declare-fun y9 () Real)
(declare-fun x10 () Real)
(declare-fun y10 () Real)
(declare-fun x11 () Real)
(declare-fun y11 () Real)
(declare-fun z () Real)
(declare-fun c () Real)
(assert (and (= c z) (and (>= x0 0) 
(and (>= y0 0) 
(and (>= x1 0) 
(and (>= y1 0) 
(and (>= x2 0) 
(and (>= y2 0) 
(and (>= x3 0) 
(and (>= y3 0) 
(and (>= x4 0) 
(and (>= y4 0) 
(and (>= x5 0) 
(and (>= y5 0) 
(and (>= x6 0) 
(and (>= y6 0) 
(and (>= x7 0) 
(and (>= y7 0) 
(and (>= x8 0) 
(and (>= y8 0) 
(and (>= x9 0) 
(and (>= y9 0) 
(and (>= x10 0) 
(and (>= y10 0) 
(and (>= x11 0) 
(and (>= y11 0) 
(and (>= z 0) 
(and (>= c 0) 
(and (<= (+ x0 0.6952596554) z) 
(and (<= 0.8677618384 y0) 
(and (<= y0 1.0) 
(and (<= x0 (- 3.6541905424 0.6952596554)) 
(and (>= x0 0) 
(and (<= (+ x1 0.1654788627) z) 
(and (<= 0.8405912433 y1) 
(and (<= y1 1.0) 
(and (<= x1 (- 3.6541905424 0.1654788627)) 
(and (>= x1 0) 
(and (<= (+ x2 0.2213767266) z) 
(and (<= 0.668963416 y2) 
(and (<= y2 1.0) 
(and (<= x2 (- 3.6541905424 0.2213767266)) 
(and (>= x2 0) 
(and (<= (+ x3 0.7113216317) z) 
(and (<= 0.6421098916 y3) 
(and (<= y3 1.0) 
(and (<= x3 (- 3.6541905424 0.7113216317)) 
(and (>= x3 0) 
(and (<= (+ x4 0.4420291742) z) 
(and (<= 0.6157791206 y4) 
(and (<= y4 1.0) 
(and (<= x4 (- 3.6541905424 0.4420291742)) 
(and (>= x4 0) 
(and (<= (+ x5 0.4940595862) z) 
(and (<= 0.5467152868 y5) 
(and (<= y5 1.0) 
(and (<= x5 (- 3.6541905424 0.4940595862)) 
(and (>= x5 0) 
(and (<= (+ x6 0.9246649056) z) 
(and (<= 0.4860710595 y6) 
(and (<= y6 1.0) 
(and (<= x6 (- 3.6541905424 0.9246649056)) 
(and (>= x6 0) 
(and (<= (+ x7 0.7020920301) z) 
(and (<= 0.420137662 y7) 
(and (<= y7 1.0) 
(and (<= x7 (- 3.6541905424 0.7020920301)) 
(and (>= x7 0) 
(and (<= (+ x8 0.5496623242) z) 
(and (<= 0.2370686692 y8) 
(and (<= y8 1.0) 
(and (<= x8 (- 3.6541905424 0.5496623242)) 
(and (>= x8 0) 
(and (<= (+ x9 0.6160893225) z) 
(and (<= 0.1013882103 y9) 
(and (<= y9 1.0) 
(and (<= x9 (- 3.6541905424 0.6160893225)) 
(and (>= x9 0) 
(and (<= (+ x10 0.3939065412) z) 
(and (<= 0.0941272727 y10) 
(and (<= y10 1.0) 
(and (<= x10 (- 3.6541905424 0.3939065412)) 
(and (>= x10 0) 
(and (<= (+ x11 0.0389539363) z) 
(and (<= 0.0052923273 y11) 
(and (<= y11 1.0) 
(and (<= x11 (- 3.6541905424 0.0389539363)) 
(and (>= x11 0) 
(and (<= c 3.6541905424) 
(and (or (<= (+ x0 0.6952596554) x1) (or (<= (+ x1 0.1654788627) x0) (or (>= (- y0 0.8677618384) y1) (or (>= (- y1 0.8405912433) y0))))) 
(and (or (<= (+ x0 0.6952596554) x2) (or (<= (+ x2 0.2213767266) x0) (or (>= (- y0 0.8677618384) y2) (or (>= (- y2 0.668963416) y0))))) 
(and (or (<= (+ x0 0.6952596554) x3) (or (<= (+ x3 0.7113216317) x0) (or (>= (- y0 0.8677618384) y3) (or (>= (- y3 0.6421098916) y0))))) 
(and (or (<= (+ x0 0.6952596554) x4) (or (<= (+ x4 0.4420291742) x0) (or (>= (- y0 0.8677618384) y4) (or (>= (- y4 0.6157791206) y0))))) 
(and (or (<= (+ x0 0.6952596554) x5) (or (<= (+ x5 0.4940595862) x0) (or (>= (- y0 0.8677618384) y5) (or (>= (- y5 0.5467152868) y0))))) 
(and (or (<= (+ x0 0.6952596554) x6) (or (<= (+ x6 0.9246649056) x0) (or (>= (- y0 0.8677618384) y6) (or (>= (- y6 0.4860710595) y0))))) 
(and (or (<= (+ x0 0.6952596554) x7) (or (<= (+ x7 0.7020920301) x0) (or (>= (- y0 0.8677618384) y7) (or (>= (- y7 0.420137662) y0))))) 
(and (or (<= (+ x0 0.6952596554) x8) (or (<= (+ x8 0.5496623242) x0) (or (>= (- y0 0.8677618384) y8) (or (>= (- y8 0.2370686692) y0))))) 
(and (or (<= (+ x0 0.6952596554) x9) (or (<= (+ x9 0.6160893225) x0) (or (>= (- y0 0.8677618384) y9) (or (>= (- y9 0.1013882103) y0))))) 
(and (or (<= (+ x0 0.6952596554) x10) (or (<= (+ x10 0.3939065412) x0) (or (>= (- y0 0.8677618384) y10) (or (>= (- y10 0.0941272727) y0))))) 
(and (or (<= (+ x0 0.6952596554) x11) (or (<= (+ x11 0.0389539363) x0) (or (>= (- y0 0.8677618384) y11) (or (>= (- y11 0.0052923273) y0))))) 
(and (or (<= (+ x1 0.1654788627) x2) (or (<= (+ x2 0.2213767266) x1) (or (>= (- y1 0.8405912433) y2) (or (>= (- y2 0.668963416) y1))))) 
(and (or (<= (+ x1 0.1654788627) x3) (or (<= (+ x3 0.7113216317) x1) (or (>= (- y1 0.8405912433) y3) (or (>= (- y3 0.6421098916) y1))))) 
(and (or (<= (+ x1 0.1654788627) x4) (or (<= (+ x4 0.4420291742) x1) (or (>= (- y1 0.8405912433) y4) (or (>= (- y4 0.6157791206) y1))))) 
(and (or (<= (+ x1 0.1654788627) x5) (or (<= (+ x5 0.4940595862) x1) (or (>= (- y1 0.8405912433) y5) (or (>= (- y5 0.5467152868) y1))))) 
(and (or (<= (+ x1 0.1654788627) x6) (or (<= (+ x6 0.9246649056) x1) (or (>= (- y1 0.8405912433) y6) (or (>= (- y6 0.4860710595) y1))))) 
(and (or (<= (+ x1 0.1654788627) x7) (or (<= (+ x7 0.7020920301) x1) (or (>= (- y1 0.8405912433) y7) (or (>= (- y7 0.420137662) y1))))) 
(and (or (<= (+ x1 0.1654788627) x8) (or (<= (+ x8 0.5496623242) x1) (or (>= (- y1 0.8405912433) y8) (or (>= (- y8 0.2370686692) y1))))) 
(and (or (<= (+ x1 0.1654788627) x9) (or (<= (+ x9 0.6160893225) x1) (or (>= (- y1 0.8405912433) y9) (or (>= (- y9 0.1013882103) y1))))) 
(and (or (<= (+ x1 0.1654788627) x10) (or (<= (+ x10 0.3939065412) x1) (or (>= (- y1 0.8405912433) y10) (or (>= (- y10 0.0941272727) y1))))) 
(and (or (<= (+ x1 0.1654788627) x11) (or (<= (+ x11 0.0389539363) x1) (or (>= (- y1 0.8405912433) y11) (or (>= (- y11 0.0052923273) y1))))) 
(and (or (<= (+ x2 0.2213767266) x3) (or (<= (+ x3 0.7113216317) x2) (or (>= (- y2 0.668963416) y3) (or (>= (- y3 0.6421098916) y2))))) 
(and (or (<= (+ x2 0.2213767266) x4) (or (<= (+ x4 0.4420291742) x2) (or (>= (- y2 0.668963416) y4) (or (>= (- y4 0.6157791206) y2))))) 
(and (or (<= (+ x2 0.2213767266) x5) (or (<= (+ x5 0.4940595862) x2) (or (>= (- y2 0.668963416) y5) (or (>= (- y5 0.5467152868) y2))))) 
(and (or (<= (+ x2 0.2213767266) x6) (or (<= (+ x6 0.9246649056) x2) (or (>= (- y2 0.668963416) y6) (or (>= (- y6 0.4860710595) y2))))) 
(and (or (<= (+ x2 0.2213767266) x7) (or (<= (+ x7 0.7020920301) x2) (or (>= (- y2 0.668963416) y7) (or (>= (- y7 0.420137662) y2))))) 
(and (or (<= (+ x2 0.2213767266) x8) (or (<= (+ x8 0.5496623242) x2) (or (>= (- y2 0.668963416) y8) (or (>= (- y8 0.2370686692) y2))))) 
(and (or (<= (+ x2 0.2213767266) x9) (or (<= (+ x9 0.6160893225) x2) (or (>= (- y2 0.668963416) y9) (or (>= (- y9 0.1013882103) y2))))) 
(and (or (<= (+ x2 0.2213767266) x10) (or (<= (+ x10 0.3939065412) x2) (or (>= (- y2 0.668963416) y10) (or (>= (- y10 0.0941272727) y2))))) 
(and (or (<= (+ x2 0.2213767266) x11) (or (<= (+ x11 0.0389539363) x2) (or (>= (- y2 0.668963416) y11) (or (>= (- y11 0.0052923273) y2))))) 
(and (or (<= (+ x3 0.7113216317) x4) (or (<= (+ x4 0.4420291742) x3) (or (>= (- y3 0.6421098916) y4) (or (>= (- y4 0.6157791206) y3))))) 
(and (or (<= (+ x3 0.7113216317) x5) (or (<= (+ x5 0.4940595862) x3) (or (>= (- y3 0.6421098916) y5) (or (>= (- y5 0.5467152868) y3))))) 
(and (or (<= (+ x3 0.7113216317) x6) (or (<= (+ x6 0.9246649056) x3) (or (>= (- y3 0.6421098916) y6) (or (>= (- y6 0.4860710595) y3))))) 
(and (or (<= (+ x3 0.7113216317) x7) (or (<= (+ x7 0.7020920301) x3) (or (>= (- y3 0.6421098916) y7) (or (>= (- y7 0.420137662) y3))))) 
(and (or (<= (+ x3 0.7113216317) x8) (or (<= (+ x8 0.5496623242) x3) (or (>= (- y3 0.6421098916) y8) (or (>= (- y8 0.2370686692) y3))))) 
(and (or (<= (+ x3 0.7113216317) x9) (or (<= (+ x9 0.6160893225) x3) (or (>= (- y3 0.6421098916) y9) (or (>= (- y9 0.1013882103) y3))))) 
(and (or (<= (+ x3 0.7113216317) x10) (or (<= (+ x10 0.3939065412) x3) (or (>= (- y3 0.6421098916) y10) (or (>= (- y10 0.0941272727) y3))))) 
(and (or (<= (+ x3 0.7113216317) x11) (or (<= (+ x11 0.0389539363) x3) (or (>= (- y3 0.6421098916) y11) (or (>= (- y11 0.0052923273) y3))))) 
(and (or (<= (+ x4 0.4420291742) x5) (or (<= (+ x5 0.4940595862) x4) (or (>= (- y4 0.6157791206) y5) (or (>= (- y5 0.5467152868) y4))))) 
(and (or (<= (+ x4 0.4420291742) x6) (or (<= (+ x6 0.9246649056) x4) (or (>= (- y4 0.6157791206) y6) (or (>= (- y6 0.4860710595) y4))))) 
(and (or (<= (+ x4 0.4420291742) x7) (or (<= (+ x7 0.7020920301) x4) (or (>= (- y4 0.6157791206) y7) (or (>= (- y7 0.420137662) y4))))) 
(and (or (<= (+ x4 0.4420291742) x8) (or (<= (+ x8 0.5496623242) x4) (or (>= (- y4 0.6157791206) y8) (or (>= (- y8 0.2370686692) y4))))) 
(and (or (<= (+ x4 0.4420291742) x9) (or (<= (+ x9 0.6160893225) x4) (or (>= (- y4 0.6157791206) y9) (or (>= (- y9 0.1013882103) y4))))) 
(and (or (<= (+ x4 0.4420291742) x10) (or (<= (+ x10 0.3939065412) x4) (or (>= (- y4 0.6157791206) y10) (or (>= (- y10 0.0941272727) y4))))) 
(and (or (<= (+ x4 0.4420291742) x11) (or (<= (+ x11 0.0389539363) x4) (or (>= (- y4 0.6157791206) y11) (or (>= (- y11 0.0052923273) y4))))) 
(and (or (<= (+ x5 0.4940595862) x6) (or (<= (+ x6 0.9246649056) x5) (or (>= (- y5 0.5467152868) y6) (or (>= (- y6 0.4860710595) y5))))) 
(and (or (<= (+ x5 0.4940595862) x7) (or (<= (+ x7 0.7020920301) x5) (or (>= (- y5 0.5467152868) y7) (or (>= (- y7 0.420137662) y5))))) 
(and (or (<= (+ x5 0.4940595862) x8) (or (<= (+ x8 0.5496623242) x5) (or (>= (- y5 0.5467152868) y8) (or (>= (- y8 0.2370686692) y5))))) 
(and (or (<= (+ x5 0.4940595862) x9) (or (<= (+ x9 0.6160893225) x5) (or (>= (- y5 0.5467152868) y9) (or (>= (- y9 0.1013882103) y5))))) 
(and (or (<= (+ x5 0.4940595862) x10) (or (<= (+ x10 0.3939065412) x5) (or (>= (- y5 0.5467152868) y10) (or (>= (- y10 0.0941272727) y5))))) 
(and (or (<= (+ x5 0.4940595862) x11) (or (<= (+ x11 0.0389539363) x5) (or (>= (- y5 0.5467152868) y11) (or (>= (- y11 0.0052923273) y5))))) 
(and (or (<= (+ x6 0.9246649056) x7) (or (<= (+ x7 0.7020920301) x6) (or (>= (- y6 0.4860710595) y7) (or (>= (- y7 0.420137662) y6))))) 
(and (or (<= (+ x6 0.9246649056) x8) (or (<= (+ x8 0.5496623242) x6) (or (>= (- y6 0.4860710595) y8) (or (>= (- y8 0.2370686692) y6))))) 
(and (or (<= (+ x6 0.9246649056) x9) (or (<= (+ x9 0.6160893225) x6) (or (>= (- y6 0.4860710595) y9) (or (>= (- y9 0.1013882103) y6))))) 
(and (or (<= (+ x6 0.9246649056) x10) (or (<= (+ x10 0.3939065412) x6) (or (>= (- y6 0.4860710595) y10) (or (>= (- y10 0.0941272727) y6))))) 
(and (or (<= (+ x6 0.9246649056) x11) (or (<= (+ x11 0.0389539363) x6) (or (>= (- y6 0.4860710595) y11) (or (>= (- y11 0.0052923273) y6))))) 
(and (or (<= (+ x7 0.7020920301) x8) (or (<= (+ x8 0.5496623242) x7) (or (>= (- y7 0.420137662) y8) (or (>= (- y8 0.2370686692) y7))))) 
(and (or (<= (+ x7 0.7020920301) x9) (or (<= (+ x9 0.6160893225) x7) (or (>= (- y7 0.420137662) y9) (or (>= (- y9 0.1013882103) y7))))) 
(and (or (<= (+ x7 0.7020920301) x10) (or (<= (+ x10 0.3939065412) x7) (or (>= (- y7 0.420137662) y10) (or (>= (- y10 0.0941272727) y7))))) 
(and (or (<= (+ x7 0.7020920301) x11) (or (<= (+ x11 0.0389539363) x7) (or (>= (- y7 0.420137662) y11) (or (>= (- y11 0.0052923273) y7))))) 
(and (or (<= (+ x8 0.5496623242) x9) (or (<= (+ x9 0.6160893225) x8) (or (>= (- y8 0.2370686692) y9) (or (>= (- y9 0.1013882103) y8))))) 
(and (or (<= (+ x8 0.5496623242) x10) (or (<= (+ x10 0.3939065412) x8) (or (>= (- y8 0.2370686692) y10) (or (>= (- y10 0.0941272727) y8))))) 
(and (or (<= (+ x8 0.5496623242) x11) (or (<= (+ x11 0.0389539363) x8) (or (>= (- y8 0.2370686692) y11) (or (>= (- y11 0.0052923273) y8))))) 
(and (or (<= (+ x9 0.6160893225) x10) (or (<= (+ x10 0.3939065412) x9) (or (>= (- y9 0.1013882103) y10) (or (>= (- y10 0.0941272727) y9))))) 
(and (or (<= (+ x9 0.6160893225) x11) (or (<= (+ x11 0.0389539363) x9) (or (>= (- y9 0.1013882103) y11) (or (>= (- y11 0.0052923273) y9))))) 
(and (or (<= (+ x10 0.3939065412) x11) (or (<= (+ x11 0.0389539363) x10) (or (>= (- y10 0.0941272727) y11) (or (>= (- y11 0.0052923273) y10))))) )))))))))))))))))))))))))))))))))))))))))))))))))))))))))))))))))))))))))))))))))))))))))))))))))))))))))))))))))))))))))))))))))))))))))))))))))))))))))))
(minimize c)
(check-sat)
(get-objectives)
(exit)
